NAME : n40w20.004.404.tour
COMMENT : Length = 404
COMMENT : Found by LKH [Keld Helsgaun] Tue May  2 05:18:26 2017
TYPE : TOUR
DIMENSION : 41
TOUR_SECTION
1
8
38
12
37
6
21
36
40
23
33
29
25
20
18
26
34
13
17
2
3
39
32
15
31
28
4
16
22
30
14
11
35
27
7
19
9
10
41
5
24
-1
EOF
